92 42 15 87 57 97 
36 47 19 8 46 17 
95 98 16 86 91 100 
33 81 50 68 
14 44 38 43 13 
39 23 67 55 25 
40 53 26 
5 83 61 85 37 93 
12 76 79 3 54 24 80 
27 69 30 51 20 32 70 
65 71 9 66 1 
63 64 49 48 
52 6 
28 29 78 34 35 77 
59 99 94 96 
62 11 90 10 
2 21 73 41 56 4 
45 82 18 84 60 89 
72 75 22 74 58 
31 88 7 
